proyfinal/src/viki/013/experimentInOfficeAgust.take6.output/046c0b26-98b4-42cb-8383-379c87c9033e.als.out
Reading from standard input... Use '--help' for help.
============================[ Problem Statistics ]=============================
|                                                                             |
|  Number of variables:         87638                                         |
|  Number of clauses:          161767                                         |
|  Parse time:                   0.03 s                                       |
|                                                                             |
============================[ Search Statistics ]==============================
| Conflicts |          ORIGINAL         |          LEARNT          | Progress |
|           |    Vars  Clauses Literals |    Limit  Clauses Lit/Cl |          |
===============================================================================
|       100 |   62262   104807   261853 |    38429      100     34 | 28.955 % |
|       250 |   48764   104804   261847 |    42272      248     44 | 44.357 % |
|       475 |   48763    67285   169433 |    46499      469     36 | 44.359 % |
|       812 |   48500    66159   166691 |    51149      779     33 | 44.659 % |
|      1318 |   48429    66114   166600 |    56264     1281     41 | 44.740 % |
|      2077 |   48403    65845   165985 |    61890     2033     43 | 44.769 % |
|      3216 |   48392    65727   165699 |    68079     3170     44 | 44.782 % |
|      4924 |   48053    64343   162295 |    74887     4864     47 | 45.169 % |
|      7486 |   47231    61719   156087 |    82376     7401     48 | 46.107 % |
===============================================================================
restarts              : 46
conflicts             : 10917          (8889 /sec)
decisions             : 34006          (0.00 % random) (27687 /sec)
propagations          : 14921839       (12149208 /sec)
conflict literals     : 476683         (43.31 % deleted)
Memory used           : 24.88 MB
CPU time              : 1.22822 s

UNSATISFIABLE
